Maximize
 obj: x0
Subject To
 c01: x0 = 0
 c02: x1 - x0  <= 0
 c03: x6 - x0  <= 0
 c04: x11 - x0 <= 0 
 c05: x19 - x0 <= 0
 c06: x23 - x0 <= 0
 c07: x35 - x0 <= 0
 c08: x37 - x0 <= 0  
 c09: x38 - x0 <= 0
 c10: x39 - x0 <= 0
 c11: x41 - x0 <= 0
 c12: x44 - x0 <= 0
 c13: x46 - x0 <= 0
 c14: x47 - x0 <= 0
 c15: x50 - x0 <= 0
 c16: x55 - x0 <= 0
 c17: x56 - x0 <= 0
 c18: x59 - x0 <= 0
 c19: x61 - x0 <= 0
 c20: x62 - x0 <= 0
 c21: x63 - x0 <= 0
 c22: x13 - x12  <= 0
 c23: x14 - x2   <= 0
 c24: x22 - x18  <= 0
 c25: x62 - x18  <= 0
 c26: x42 - x40  <= 0
 c27: x51 - x48  <= 0
 c30: x43 - x8   <= 0
 c31: x29  - x17 <= 0
 c32: x61 - x9   <= 0
 c33: x63 - x56  <= 0
 c34: x15 + x45 - x1 - x13   <= 0
 c35: x15 + x53 - x1 - x5    <= 0
 c36: x51 + x53 - x48 - x49  <= 0
 c37: x15 + x57  - x1 - x9   <= 0
 c38: x23 + x62 - x16 - x22  <= 0
 c39: x27 + x45 - x1- x9     <= 0
 c40: x31 + x43 - x1- x11    <= 0
 c41: x31 + x53 - x16 - x21  <= 0
 c42: x45 + x57 - x8 - x41   <= 0
 c43: x55 + x58  - x16 - x50 <= 0
 c44: x7+ x54 - x4- x6       <= 0
 c45: x51 + x53 - x48 - x49  <= 0
 c46: x29 + x47 + x61 + x63 - x8- x13 - x17  - x56 <= 0
 c47: x29 + x61 + x62 - x16 - x17 - x28 <= 0
 c48: x30 + x31 + x47 + x63 - x8- x14 - x16 - x24  <= 0
 c49: x30 + x31 + x55 - x19 - x22 - x24 <= 0
 c50: x30 + x31 + x59 - x16 - x24 - x26  <= 0
 c51: x47 + x54 + x63 - x8 - x16 - x38  <= 0
 c52: x47 + x60 + x63 - x8 - x44 - x56  <= 0
 c53: 88 x0 +58 x1 + 54 x2 + 24 x3 + 48 x4 + 18 x5 + 14 x6 - 16 x7 + 64 x8 + 34 x9 + 30 x10 + 24 x12 - 6 x13 - 10 x14 - 40 x15 + 72 x16 + 42 x17 + 38 x18 + 8 x19 + 32 x20 + 2 x21 - 2 x22- 32 x23 + 48 x24 + 18 x25 + 14 x26 - 16 x27 + 8 x28 - 22 x29 - 26 x30 - 56 x31 + 56 x32 + 26 x33 + 22 x34 - 8 x35 + 16 x36 - 14 x37 - 18 x38 - 48 x39 + 32 x40 + 2 x41- 2 x42 - 32 x43 - 8 x44 - 38 x45 - 42 x46 - 72 x47 + 40 x48 + 10 x49 + 6 x50 - 24 x51 - 30 x53 - 34 x54 - 64 x55 + 16 x56 - 14 x57- 18 x58 - 48 x59 - 24 x60 - 54 x61- 58 x62 - 88 x63 <= -1
End